c
c Renamed file of mux.cnf 
c Variables are renamed according to left2right.ord 
c
c Date: Thu Apr 29 14:49:51 PDT 2004 by (jinbo)
c Host: Linux solution 2.4.18-4smp #1 SMP Thu May 2 18:32:34 EDT 2002 i686 unknown
c
c Copyright (c) 2001 Fadi A. Aloul.
c
p cnf 73 240
3 -2 0
5 -2 0
2 -3 -5 0
-2 1 0
-1 2 0
-24 -26 0
-25 -26 0
46 -26 0
26 24 25 -46 0
-26 19 0
-21 -15 0
-17 -15 0
-46 -15 0
15 21 17 46 0
-15 19 0
-24 -23 0
-21 -23 0
45 -23 0
23 24 21 -45 0
-23 19 0
-24 -28 0
46 -28 0
45 -28 0
28 24 -46 -45 0
-28 19 0
-21 -22 0
-46 -22 0
45 -22 0
22 21 46 -45 0
-22 19 0
-25 -16 0
-17 -16 0
-45 -16 0
16 25 17 45 0
-16 19 0
-25 -27 0
46 -27 0
-45 -27 0
27 25 -46 45 0
-27 19 0
-17 -18 0
-46 -18 0
-45 -18 0
18 17 46 45 0
-18 19 0
-24 -20 0
-25 -20 0
-21 -20 0
-17 -20 0
20 24 25 21 17 0
-20 19 0
-19 26 15 23 28 22 16 27 18 20 0
-52 -51 0
-54 -51 0
46 -51 0
51 52 54 -46 0
-51 43 0
-53 -56 0
-57 -56 0
-46 -56 0
56 53 57 46 0
-56 43 0
-52 -50 0
-53 -50 0
45 -50 0
50 52 53 -45 0
-50 43 0
-52 -47 0
46 -47 0
45 -47 0
47 52 -46 -45 0
-47 43 0
-53 -48 0
-46 -48 0
45 -48 0
48 53 46 -45 0
-48 43 0
-54 -58 0
-57 -58 0
-45 -58 0
58 54 57 45 0
-58 43 0
-54 -49 0
46 -49 0
-45 -49 0
49 54 -46 45 0
-49 43 0
-57 -59 0
-46 -59 0
-45 -59 0
59 57 46 45 0
-59 43 0
-52 -55 0
-54 -55 0
-53 -55 0
-57 -55 0
55 52 54 53 57 0
-55 43 0
-43 51 56 50 47 48 58 49 59 55 0
-36 -38 0
-41 -38 0
46 -38 0
38 36 41 -46 0
-38 30 0
-33 -34 0
-39 -34 0
-46 -34 0
34 33 39 46 0
-34 30 0
-36 -31 0
-33 -31 0
45 -31 0
31 36 33 -45 0
-31 30 0
-36 -37 0
46 -37 0
45 -37 0
37 36 -46 -45 0
-37 30 0
-33 -32 0
-46 -32 0
45 -32 0
32 33 46 -45 0
-32 30 0
-41 -40 0
-39 -40 0
-45 -40 0
40 41 39 45 0
-40 30 0
-41 -42 0
46 -42 0
-45 -42 0
42 41 -46 45 0
-42 30 0
-39 -44 0
-46 -44 0
-45 -44 0
44 39 46 45 0
-44 30 0
-36 -35 0
-41 -35 0
-33 -35 0
-39 -35 0
35 36 41 33 39 0
-35 30 0
-30 38 34 31 37 32 40 42 44 35 0
-67 -66 0
-69 -66 0
46 -66 0
66 67 69 -46 0
-66 61 0
-68 -71 0
-72 -71 0
-46 -71 0
71 68 72 46 0
-71 61 0
-67 -65 0
-68 -65 0
45 -65 0
65 67 68 -45 0
-65 61 0
-67 -64 0
46 -64 0
45 -64 0
64 67 -46 -45 0
-64 61 0
-68 -62 0
-46 -62 0
45 -62 0
62 68 46 -45 0
-62 61 0
-69 -73 0
-72 -73 0
-45 -73 0
73 69 72 45 0
-73 61 0
-69 -63 0
46 -63 0
-45 -63 0
63 69 -46 45 0
-63 61 0
-72 -60 0
-46 -60 0
-45 -60 0
60 72 46 45 0
-60 61 0
-67 -70 0
-69 -70 0
-68 -70 0
-72 -70 0
70 67 69 68 72 0
-70 61 0
-61 66 71 65 64 62 73 63 60 70 0
-12 -6 0
-9 -6 0
-19 -6 0
6 12 9 19 0
-6 5 0
-12 -10 0
9 -10 0
-43 -10 0
10 12 -9 43 0
-10 5 0
-12 -14 0
-19 -14 0
-43 -14 0
14 12 19 43 0
-14 5 0
12 -7 0
-9 -7 0
-30 -7 0
7 -12 9 30 0
-7 5 0
-9 -8 0
-19 -8 0
-30 -8 0
8 9 19 30 0
-8 5 0
12 -11 0
9 -11 0
-61 -11 0
11 -12 -9 61 0
-11 5 0
9 -4 0
-43 -4 0
-61 -4 0
4 -9 43 61 0
-4 5 0
12 -13 0
-30 -13 0
-61 -13 0
13 -12 30 61 0
-13 5 0
-19 -29 0
-43 -29 0
-30 -29 0
-61 -29 0
29 19 43 30 61 0
-29 5 0
-5 6 10 14 7 8 11 4 13 29 0
